p edge 73 168
e 1 3
e 1 4
e 1 6
e 1 7
e 1 9
e 1 13
e 1 15
e 1 16
e 1 19
e 1 22
e 1 23
e 1 27
e 1 32
e 1 39
e 1 40
e 2 4
e 2 7
e 2 8
e 2 12
e 2 42
e 2 67
e 3 4
e 3 19
e 3 35
e 3 49
e 4 7
e 4 8
e 4 12
e 4 35
e 4 67
e 5 6
e 5 11
e 5 18
e 5 47
e 6 11
e 6 34
e 6 41
e 6 43
e 6 44
e 6 69
e 7 9
e 7 18
e 7 19
e 7 27
e 7 39
e 7 43
e 7 45
e 7 61
e 7 71
e 8 12
e 8 14
e 8 27
e 8 33
e 8 49
e 8 57
e 9 17
e 9 19
e 9 27
e 9 34
e 9 45
e 9 71
e 10 11
e 10 12
e 10 16
e 10 20
e 10 55
e 10 72
e 11 12
e 11 55
e 12 16
e 12 53
e 12 67
e 13 15
e 13 22
e 13 25
e 13 40
e 13 50
e 14 25
e 14 40
e 14 50
e 15 22
e 15 40
e 16 20
e 16 23
e 16 26
e 16 27
e 16 29
e 16 33
e 16 68
e 17 18
e 17 19
e 17 32
e 17 41
e 17 45
e 17 54
e 17 59
e 18 29
e 18 41
e 18 45
e 18 54
e 19 27
e 19 60
e 19 71
e 20 28
e 20 31
e 20 51
e 21 23
e 21 26
e 21 36
e 21 56
e 21 60
e 21 63
e 22 40
e 22 55
e 23 26
e 23 27
e 23 29
e 23 64
e 24 36
e 24 38
e 24 52
e 25 50
e 26 27
e 26 29
e 26 36
e 26 63
e 27 29
e 27 30
e 27 33
e 28 31
e 29 41
e 29 70
e 30 39
e 30 61
e 30 62
e 31 37
e 31 38
e 31 73
e 32 59
e 32 66
e 33 65
e 33 68
e 34 43
e 34 45
e 34 58
e 35 47
e 36 52
e 36 53
e 36 63
e 37 38
e 38 46
e 38 52
e 38 57
e 38 73
e 39 61
e 40 50
e 41 54
e 42 44
e 42 47
e 43 44
e 43 58
e 44 47
e 44 58
e 46 57
e 48 51
e 48 56
e 51 56
e 52 53
